c SAT Generator for power-law distributed variable frequencies
c -g u -v 20 -c 91 -k 3 -p 2.750000 -b 3.200000 -f /home/schmidt/Devel/ni-kop-sat/data/ensemble/ruf20-91/ruf20-91-254 -u 1 -U 1 -s 302465020
p cnf 20 91
-1 12 15 0
13 -15 -17 0
-6 -12 16 0
4 6 -20 0
-4 10 -19 0
-7 -15 -17 0
-7 12 -13 0
2 15 20 0
-6 12 16 0
8 13 18 0
-3 5 13 0
-2 -17 20 0
4 6 -13 0
3 -7 15 0
-1 -8 -17 0
1 -2 4 0
3 -16 -20 0
-7 -14 19 0
-4 17 -20 0
-6 13 -18 0
4 5 -13 0
2 6 -20 0
-9 -11 -20 0
-11 12 19 0
-2 -3 4 0
1 5 18 0
14 15 19 0
3 15 -19 0
-8 -19 20 0
6 -19 20 0
13 -14 20 0
-2 7 19 0
-2 10 -14 0
-11 -16 17 0
2 8 -11 0
-3 11 15 0
6 7 17 0
-2 -3 14 0
2 -10 18 0
-13 14 -18 0
-6 13 -17 0
11 17 -19 0
8 -16 -17 0
5 6 -8 0
1 8 13 0
-4 10 -14 0
4 11 -19 0
-4 9 12 0
6 -12 -13 0
3 -4 10 0
1 -6 -13 0
2 -3 -20 0
-5 -7 -10 0
-8 9 -19 0
-2 4 -16 0
2 7 10 0
5 -7 -9 0
3 4 8 0
2 -5 12 0
10 -13 19 0
3 15 18 0
1 8 10 0
4 -15 -17 0
13 -14 15 0
-3 4 -20 0
5 -7 -11 0
7 9 -17 0
6 -16 -19 0
-13 -14 -16 0
1 -12 13 0
1 -8 13 0
-4 14 19 0
-10 -13 19 0
-1 -7 12 0
3 -15 -18 0
5 -11 -20 0
5 -8 16 0
3 9 -18 0
-3 -11 20 0
2 5 -18 0
1 12 13 0
2 -10 -13 0
-2 9 17 0
-12 17 -20 0
-6 -17 18 0
-3 -15 -20 0
9 -15 18 0
10 -12 14 0
9 12 -17 0
2 11 -12 0
2 12 18 0
